
  32    1
  10

   0   0   7 2 3 4 6 8 10 12 
   9   5   3 23 13 5 
   9   2   8 23 19 18 16 15 14 13 11 
  10   7   4 31 14 9 7 
   5  10   6 19 18 17 15 14 11 
   1  10   6 23 19 16 14 13 11 
   9   6   6 23 22 20 18 16 13 
   5   6   4 21 15 14 13 
  10   8   4 24 23 20 18 
   4  10   3 31 20 13 
   7   8   5 31 30 28 21 20 
   2  10   5 30 28 24 22 20 
   5  10   6 30 29 28 27 26 24 
   4   8   4 29 28 24 22 
   9   5   4 30 28 27 20 
   2   6   4 29 28 24 21 
   2   6   3 24 22 20 
  10  10   3 30 28 21 
  10   6   3 28 22 21 
   6   9   3 29 26 25 
   9  10   3 27 26 25 
   9   8   3 27 26 25 
  10  10   3 28 26 25 
   7  10   1 25 
   3  10   1 32
   7   8   1 32
   8  10   1 32
   5   9   1 32
   6   6   1 32
  10  10   1 32
   5   7   1 32
   0   0   0 
